500
[103,106,111,115,116,118,125,131,133,134,144,147,151,154,163,164,171,172,176,178,181,182,184,186,198,210,212,218,220,225,226,227,230,233,236,240,242,243,244,248,250,257,260,261,262,263,264,267,269,274,276,278,279,280,283,288,290,292,294,300,301,302,303,305,309,310,312,313,319,320,322,325,326,330,332,334,336,344,345,347,349]
[1,2,1,1,1,1,2,1,2,1,1,1,2,1,1,1,1,1,1,1,1,2,1,1,1,2,4,1,2,1,1,1,2,2,1,2,1,1,1,1,1,1,1,2,1,1,1,1,1,2,1,1,1,1,2,1,1,1,1,2,1,1,1,1,1,1,1,1,1,1,1,1,2,2,1,1,1,1,1,1,1]
